Gurobi Optimizer version 9.1.2 build v9.1.2rc0 (linux64)
Thread count: 36 physical cores, 72 logical processors, using up to 32 threads
Optimize a model with 12 rows, 57 columns and 590 nonzeros
Model fingerprint: 0xf32eec78
Model has 47 quadratic constraints
Coefficient statistics:
  Matrix range     [2e-05, 3e+00]
  QMatrix range    [1e+00, 1e+00]
  QLMatrix range   [1e+00, 1e+00]
  Objective range  [8e-03, 7e-01]
  Bounds range     [1e+00, 1e+00]
  RHS range        [1e+00, 1e+00]
Presolve removed 9 rows and 0 columns

Continuous model is non-convex -- solving as a MIP.

Presolve removed 9 rows and 0 columns
Presolve time: 0.00s
Presolved: 189 rows, 57 columns, 443 nonzeros
Presolved model has 47 bilinear constraint(s)
Variable types: 57 continuous, 0 integer (0 binary)

Root relaxation: objective -1.743721e+00, 44 iterations, 0.00 seconds

    Nodes    |    Current Node    |     Objective Bounds      |     Work
 Expl Unexpl |  Obj  Depth IntInf | Incumbent    BestBd   Gap | It/Node Time

     0     0   -1.74372    0   38          -   -1.74372      -     -    0s
H    0     0                       0.6147548   -1.74372   384%     -    0s
     0     0   -1.64739    0    1    0.61475   -1.64739   368%     -    0s
H    0     0                      -1.6450460   -1.64739  0.14%     -    0s
     0     0     cutoff    0        -1.64505   -1.64505  0.00%     -    0s

Cutting planes:
  RLT: 25
  BQP: 3

Explored 1 nodes (76 simplex iterations) in 0.01 seconds
Thread count was 32 (of 72 available processors)

Solution count 2: -1.64505 0.614755 
No other solutions better than -1.64505

Optimal solution found (tolerance 1.00e-04)
Best objective -1.645045978473e+00, best bound -1.645045978473e+00, gap 0.0000%

User-callback calls 78, time in user-callback 0.00 sec
Gurobi Optimizer version 9.1.2 build v9.1.2rc0 (linux64)
Thread count: 36 physical cores, 72 logical processors, using up to 32 threads
Optimize a model with 60 rows, 300 columns and 15500 nonzeros
Model fingerprint: 0xc91b2194
Model has 250 quadratic constraints
Coefficient statistics:
  Matrix range     [1e-06, 4e+00]
  QMatrix range    [1e+00, 1e+00]
  QLMatrix range   [1e+00, 1e+00]
  Objective range  [4e-04, 1e+00]
  Bounds range     [1e+00, 1e+00]
  RHS range        [1e+00, 1e+00]
Presolve removed 12 rows and 0 columns

Continuous model is non-convex -- solving as a MIP.

Presolve removed 12 rows and 0 columns
Presolve time: 0.01s
Presolved: 1048 rows, 300 columns, 13862 nonzeros
Presolved model has 250 bilinear constraint(s)
Variable types: 300 continuous, 0 integer (0 binary)

Root relaxation: objective -2.729403e+01, 354 iterations, 0.02 seconds

    Nodes    |    Current Node    |     Objective Bounds      |     Work
 Expl Unexpl |  Obj  Depth IntInf | Incumbent    BestBd   Gap | It/Node Time

     0     0  -27.29403    0  208          -  -27.29403      -     -    0s
H    0     0                      -4.3128546  -27.29403   533%     -    0s
     0     0  -24.27209    0  200   -4.31285  -24.27209   463%     -    0s
     0     0  -23.82425    0  171   -4.31285  -23.82425   452%     -    0s
     0     0  -23.81966    0  161   -4.31285  -23.81966   452%     -    0s
     0     0  -23.81450    0  151   -4.31285  -23.81450   452%     -    0s
H    0     0                     -12.8849173  -23.81450  84.8%     -    0s
H    0     0                     -17.2229270  -23.81450  38.3%     -    0s
H    0     0                     -18.0889192  -23.81450  31.7%     -    0s
H    0     0                     -18.1870879  -23.81450  30.9%     -    0s
     0     2  -23.81450    0  151  -18.18709  -23.81450  30.9%     -    0s
* 2066  1901              43     -19.7188982  -22.47846  14.0%  56.0    2s
* 2067  1901              43     -19.7188984  -22.47846  14.0%  56.0    2s
* 2781  1889              78     -20.5162712  -22.47846  9.56%  52.5    2s
* 5771  1144             101     -20.5603134  -22.23884  8.16%  59.1    4s
* 5773  1144             102     -20.5603157  -22.23884  8.16%  59.1    4s
  6639  1406  -20.66261   39   33  -20.56032  -22.23884  8.16%  59.4    5s
* 7127  1536              89     -21.0646662  -22.23884  5.57%  59.4    5s
* 9011  1484              57     -21.0646691  -22.23884  5.57%  61.0    5s
* 9064  1484              70     -21.0660682  -22.23884  5.57%  60.9    5s
*10414  1556              62     -21.0661034  -21.79347  3.45%  61.1    6s
*10415  1556              62     -21.0661034  -21.79347  3.45%  61.1    6s
*11315  1815              66     -21.2712925  -21.74174  2.21%  60.0    6s
*11983  1962              66     -21.2727660  -21.58437  1.46%  59.2    6s
*12043  1962              70     -21.3006798  -21.58437  1.33%  58.9    6s
*12136  1962              69     -21.3127341  -21.58437  1.27%  58.7    6s
*12824  1483              67     -21.3129715  -21.47364  0.75%  57.2    7s
*12825  1483              67     -21.3129786  -21.47364  0.75%  57.2    7s
*12921  1483              69     -21.3130122  -21.47364  0.75%  57.0    7s
*13322  1483              69     -21.3130160  -21.47364  0.75%  56.1    7s
*13848   469              68     -21.3130198  -21.36941  0.26%  54.5    7s
*13849   469              68     -21.3130199  -21.36941  0.26%  54.5    7s
*13921   469              67     -21.3130201  -21.36941  0.26%  54.3    7s
*14138   469              71     -21.3130204  -21.36096  0.22%  53.5    7s
*14139   469              70     -21.3130213  -21.36096  0.22%  53.5    7s
*14141   469              67     -21.3130224  -21.36096  0.22%  53.5    7s
*15282   218              66     -21.3130254  -21.33448  0.10%  50.1    7s
*15438   218              71     -21.3130270  -21.33448  0.10%  49.7    7s
*15547   218              69     -21.3130274  -21.33448  0.10%  49.3    7s
*16121    45              66     -21.3130280  -21.31688  0.02%  47.8    7s

Explored 16585 nodes (773046 simplex iterations) in 7.60 seconds
Thread count was 32 (of 72 available processors)

Solution count 10: -21.313 -21.313 -21.313 ... -21.313

Optimal solution found (tolerance 1.00e-04)
Best objective -2.131302801334e+01, best bound -2.131469855357e+01, gap 0.0078%

User-callback calls 34039, time in user-callback 0.01 sec



objective value: -21.313028013336943
objective bound: -21.31469855356591
x_opt: [0.0, 1.0, 1.0, 0.0, 0.0, 0.0, 1.0, 1.0, 0.0, 0.0, 0.26079662876168197, 0.40097146996807576, 0.0, 1.0, 0.9999999999999999, 1.0, 0.0, 1.0, 0.0, 0.0, 0.0, 0.9999999999999999, 1.0, 1.0, 0.0, 1.0, 1.0, 1.0, 0.0, 0.8350131294432221, 1.0, 0.7358257173012974, 0.0, 0.20108108762043372, 1.0, 1.0, 1.0, 1.0, 0.4842611847957556, 1.0, 0.887144949779078, 0.13068920011489046, 1.0, 0.0, 0.0, 0.716891579495979, 0.14391275192429817, 0.011508330590236582, 0.0, 1.0]
GUROBI solution time: 7.602647066116333

